p cnf 24 37
-1 23 0 
-1 24 0 
-2 22 -3 23 0 
-2 22 -3 24 0 
-4 24 0 
-5 10 -6 23 0 
-5 10 -6 24 0 
-2 22 -6 23 0 
-7 -6 24 0 
-2 22 -6 24 0 
-8 14 15 16 -6 23 0 
-9 12 17 -6 24 0 
-8 14 15 16 23 0 
-10 5 23 0 
-5 10 24 0 
-7 24 0 
-11 -12 9 17 -13 -7 -2 22 24 0 
-14 8 15 16 23 0 
-15 8 14 16 23 0 
-5 10 23 0 
-5 10 -7 23 0 
-10 5 24 0 
-7 23 0 
-16 8 14 15 23 0 
-17 9 12 23 0 
-15 8 14 16 24 0 
-18 24 0 
-7 -19 24 0 
-2 22 -19 23 0 
-7 -19 23 0 
-12 9 17 -5 10 23 0 
-20 -16 8 14 15 -21 23 0 
-12 9 17 23 0 
-22 2 -3 24 0 
-7 -3 24 0 
-22 2 -3 23 0 
-7 -6 23 0 
